
   AbsCon 1.41 (January, 2014) - defaultConfiguration

   
   instance
        framework=CSP  name=Isomorphism-/cluster/gpg/ciaran/sip-benchmarks/benchmarks/images-CVIU11/patterns/pattern25-/cluster/gpg/ciaran/sip-benchmarks/benchmarks/images-CVIU11/targets/target77
        parameters=/cluster/gpg/ciaran/sip-benchmarks/benchmarks/images-CVIU11/patterns/pattern25,/cluster/gpg/ciaran/sip-benchmarks/benchmarks/images-CVIU11/targets/target77
      

   loading variables...
        nbVariables=81  nbDomainTypes=1  nbTotalValues=464292  domainSizes=(5732:81)
          =>  wckTime=0.557  cpuTime=0.445  mem=275M685

   loading objectives...

   loading constraints...
        nbConstraints=116  nbSpecificConstraints=1  nbExtensionStructures=(1,shared:114)  nbConflictsStructures=(1,shared:114,unbuilt:1)
        degrees=(3:15)(4:64)(5:2)  arities=(2:115)(81:1)  types=(AllDifferent:1)(ConstraintHardExtensionV-Bits:115)
          =>  wckTime=0.948  cpuTime=0.805  mem=303M687

   INFO : <!-- Start saving the XML representation -->

   INFO : <!-- Stop saving the XML representation of target77.xml -->

   Solver SolverBacktrack being built... 

   INFO : Stop creating residues for RevisionManagerBitRm
          =>  wckTime=7.999  cpuTime=7.262  mem=833M649

   
   search
        run=0  nbConstraintChecks=0  depth=(min:0,max:0,avg:1)  nbEffectivePropagations=68463  nbRevisions=215504  nbUselessRevisions=147042
        nbAssignments=5702  nbFailedAssignments=5702  nbBacktracks=1  nbVisitedNodes=11405  nbRestartNogoods=0
          =>  wckTime=2818.719  cpuTime=2787.042  mem=4836M914

   
   global
        nbConstraintChecks=0  nbEffectivePropagations=68463  nbRevisions=215504  nbUselessRevisions=147042  nbRestartNogoods=0
        solvingWckTime=2818.719  expiredTime=no  totalExploration=yes  nbFoundSolutions=0  Stop=FULL_EXPLORATION
          =>  wckTime=2826.718  cpuTime=2787.042  mem=4836M914

s UNSATISFIABLE
d NODES 5702

   totalWckTime=2826.508  totalCpuTime=2787.046
